letting n =  10
letting blocks =  [[1, 1], [1, 2], [1, 3], [1, 5], [1, 6], [1, 9], [2, 1], [2, 3], [2, 4], [2, 5], [2, 7], [2, 10], [3, 2], [3, 4], [3, 6], [3, 7], [3, 9], [3, 10], [4, 2], [4, 5], [4, 6], [4, 7], [4, 8], [4, 9], [5, 1], [5, 4], [5, 7], [5, 8], [5, 9], [5, 10], [6, 2], [6, 3], [6, 6], [6, 7], [6, 8], [6, 9], [7, 1], [7, 3], [7, 5], [7, 10], [8, 1], [8, 2], [8, 4], [8, 5], [8, 6], [8, 8], [9, 3], [9, 4], [9, 5], [9, 7], [9, 8], [9, 10], [10, 1], [10, 2], [10, 3], [10, 8], [10, 9], [10, 10]]
